============================[ Problem Statistics ]=============================|                                                                             ||  Number of variables:          4242                                         ||  Number of clauses:           10476                                         ||  Parse time:                   0.86 s                                       ||                                                                             |============================[ Search Statistics ]==============================| Conflicts |          ORIGINAL         |          LEARNT          | Progress ||           |    Vars  Clauses Literals |    Limit  Clauses Lit/Cl |          |===============================================================================|       100 |    1591     6681  1376872 |     2449      100     53 | 62.501 % ||       250 |    1591     6681  1376872 |     2694      250     75 | 62.495 % |===============================================================================restarts              : 4conflicts             : 464            (360 /sec)decisions             : 823            (0.00 % random) (638 /sec)propagations          : 13773          (10677 /sec)conflict literals     : 39490          (94.44 % deleted)CPU time              : 1.29 sSATISFIABLE